EVRP-TW-SPD dataset generation/evrptwspd_instances/small_instances/Cplex15er/c208C15.txt
StringID	Type	x	y	Delivery	Pickup	ReadyTime	DueDate	ServiceTime
D0	d	40.0	50.0	0.0	0.0	0.0	3390.0	0.0
S0	f	40.0	50.0	0.0	0.0	0.0	3390.0	0.0
S1	f	77.0	52.0	0.0	0.0	0.0	3390.0	0.0
S14	f	27.0	10.0	0.0	0.0	0.0	3390.0	0.0
S19	f	77.0	30.0	0.0	0.0	0.0	3390.0	0.0
C24	c	25.0	50.0	5.0	5.0	2645.0	3285.0	90.0
C20	c	30.0	50.0	6.0	4.0	2650.0	3290.0	90.0
C98	c	58.0	75.0	15.466666666666667	4.533333333333333	79.0	719.0	90.0
C75	c	45.0	65.0	13.846153846153847	6.153846153846153	939.0	1579.0	90.0
C79	c	87.0	30.0	3.4482758620689657	6.551724137931034	1082.0	1722.0	90.0
C88	c	65.0	60.0	27.692307692307693	2.3076923076923066	27.0	667.0	90.0
C31	c	10.0	35.0	5.7142857142857135	14.285714285714286	2020.0	2660.0	90.0
C82	c	75.0	55.0	14.666666666666666	5.333333333333334	268.0	908.0	90.0
C59	c	38.0	10.0	2.631578947368421	7.368421052631579	1056.0	1696.0	90.0
C22	c	28.0	52.0	10.769230769230768	9.230769230769232	2647.0	3287.0	90.0
C52	c	25.0	35.0	7.142857142857143	2.8571428571428568	162.0	802.0	90.0
C73	c	92.0	30.0	3.2608695652173916	6.739130434782608	888.0	1528.0	90.0
C43	c	33.0	35.0	9.428571428571429	0.5714285714285712	17.0	657.0	90.0
C85	c	86.0	46.0	16.046511627906977	13.953488372093023	503.0	1143.0	90.0
C7	c	58.0	70.0	16.571428571428573	3.428571428571427	27.0	667.0	90.0

Q Vehicle fuel tank capacity /77.75/
C Vehicle load capacity /700.0/
r fuel consumption rate /1.0/
g inverse refueling rate /3.47/
v average Velocity /1.0/
